1608315
32 51 101509
51 21 46274
21 30 39447
30 20 77515
20 2 17216
2 29 21977
29 24 1249
24 40 5278
40 63 28668
63 66 14572
66 37 15200
37 6 28523
6 42 52950
42 45 69394
45 33 36286
33 54 20835
54 25 61621
25 65 57991
65 10 13370
10 5 47990
5 28 14521
28 59 6419
59 22 7498
22 48 4353
48 18 8895
18 4 15574
4 39 3130
39 55 3489
55 31 1427
31 41 5759
41 60 10110
60 23 5437
23 11 13443
11 0 10465
0 53 18207
53 12 13536
12 46 9114
46 3 12782
3 19 4440
19 64 13332
64 44 16726
44 26 8214
26 16 1445
16 1 16612
1 47 7938
47 62 23516
62 15 14689
15 58 10880
58 27 24825
27 49 10810
49 35 24707
35 7 11459
7 14 6874
14 57 6904
57 8 1777
8 67 41649
67 34 19070
34 50 8926
50 38 11004
38 61 8740
61 36 30446
36 52 6554
52 43 84806
43 13 62420
13 9 62052
9 17 28652
17 56 27906
56 32 88918
32 32 0
